n_res = 4;
rc = [ 19, 32, 18, 22 ];
n_tasks = 30;
d = [ 9, 2, 2, 8, 2, 2, 10, 1, 4, 1, 10, 9, 8, 2, 10, 3, 10, 8, 5, 5, 4, 8, 4, 5, 7, 10, 1, 4, 3, 9 ];
rr = [| 19, 19, 19, 19, 19, 19, 19, 19, 19, 19, 19, 19, 19, 19, 19, 19, 19, 19, 19, 19, 19, 19, 19, 19, 19, 19, 19, 19, 19, 19
      | 32, 32, 32, 32, 32, 32, 32, 32, 32, 32, 32, 32, 32, 32, 32, 32, 32, 32, 32, 32, 32, 32, 32, 32, 32, 32, 32, 32, 32, 32
      | 18, 18, 18, 18, 18, 18, 18, 18, 18, 18, 18, 18, 18, 18, 18, 18, 18, 18, 18, 18, 18, 18, 18, 18, 18, 18, 18, 18, 18, 18
      | 22, 22, 22, 22, 22, 22, 22, 22, 22, 22, 22, 22, 22, 22, 22, 22, 22, 22, 22, 22, 22, 22, 22, 22, 22, 22, 22, 22, 22, 22|];
suc = [ { 4, 9, 15 },
       { 4, 6, 11 },
       { 5, 7, 16 },
       { 8 },
       { 6, 9, 12 },
       { 13, 15, 22 },
       { 9, 12 },
       { 16, 29 },
       { 10, 14, 22 },
       { 24, 30 },
       { 13, 14, 15 },
       { 13, 21, 25 },
       { 20, 24 },
       { 17, 18, 20 },
       { 18, 19, 23 },
       { 18, 19 },
       { 19, 24 },
       { 21, 25 },
       { 21, 27 },
       { 23, 26, 27 },
       { 26 },
       { 23, 25, 26 },
       { 28, 29 },
       { 29 },
       { 27, 30 },
       { 28, 30 },
       { 28 },
       {  },
       {  },
       {  } ];
